(declare-const x0 Bool)
(assert (= true x0))
(assert (or true true))
(assert (or (or false (and x0 false)) false))
(assert (= (or (= true x0) x0) (or (and x0 x0) true)))
(assert (and false x0))
(assert true)
(assert (and (and x0 x0) (= true x0)))
(assert (= (and x0 x0) x0))
(assert (or (and (= (= x0 (and x0 false)) true) (or (or (or x0 x0) x0) (or true (= true true)))) (or x0 x0)))
(assert (or true (and (and x0 x0) (and (= false x0) (= x0 true)))))
(check-sat)
